12 16 6 10
6 11 14 17 2 16 12 16 15 15 13 18 10 19 12 20 
0.19 1.62 2.49 10.83 12.84 7.32 14.89 12.7 6.84 5.36 12.56 11.28 12.06 7.65 4.02 15.19 
10.83 6.72 5 11.44 13.15 2.34 15.44 11.22 11.85 5.08 14.12 7.56 8.12 12.73 1.92 7.8 
0.58 11.69 1.9 12.76 10.6 1.74 9.48 14.98 8.86 14.51 2.28 5.89 8.23 8.19 13.59 4.84 
6.98 9.46 3.98 14.08 7.72 3.88 2.28 9.37 5.8 7.37 12.49 15.25 0.52 12.44 1.5 1.06 
2.75 11.71 5.68 0.18 9.91 12.21 5.58 6.28 1.93 8.57 15.98 13.56 1.67 4.73 4.18 15.26 
7.52 0.57 5.62 14.14 3.91 2.42 0.98 0.18 9.7 13.71 0.32 6.03 4.2 15.41 3.68 7.23 
8 8 8 8 8 8 8 8 8 8 8 8 8 8 8 8 
5.31 11.86 1.25 5.19 15.64 15.78 14.25 13.42 4.41 11.52 7.4 11.67 2.08 9 9.27 2.18 
1.25 4.79 11.71 3.35 12.98 4.07 8.05 6.27 9.47 15.08 5.18 6.66 0.01 13.46 13 13.94 
6.55 4.99 8.54 11.96 0.26 3.27 1.45 4.01 11.69 3.96 8.22 1.99 2.59 14.14 9.26 5.55 
8.92 3.13 2.49 14.2 4.83 2.47 6.41 11.34 11.09 11.16 0.26 2.7 9.23 2.05 10.31 15.65 
13.88 6.54 15.97 13.31 10.84 12.42 10.62 10.35 0.55 14.74 14.02 0.75 6.02 12.76 12.99 11.3 
1 1 1 1 1 1 1 1 1 1 1 1 1 1 1 1 
1 1 1 1 1 1 1 1 1 1 1 1 1 1 1 1 
1 1 1 1 1 1 1 1 1 1 1 1 1 1 1 1 
1 1 1 1 1 1 1 1 1 1 1 1 1 1 1 1 
1 1 1 1 1 1 1 1 1 1 1 1 1 1 1 1 
1 1 1 1 1 1 1 1 1 1 1 1 1 1 1 1 
1 1 1 1 1 1 1 1 1 1 1 1 1 1 1 1 
1 1 1 1 1 1 1 1 1 1 1 1 1 1 1 1 
1 1 1 1 1 1 1 1 1 1 1 1 1 1 1 1 
1 1 1 1 1 1 1 1 1 1 1 1 1 1 1 1 
1 1 1 1 1 1 1 1 1 1 1 1 1 1 1 1 
1 1 1 1 1 1 1 1 1 1 1 1 1 1 1 1 
0.01 0.01 0.01 0.01 0.01 0.01 0.01 0.01 0.01 0.01 0.01 0.01 0.01 0.01 0.01 0.01 
0.02 0.02 0.02 0.02 0.02 0.02 0.02 0.02 0.02 0.02 0.02 0.02 0.02 0.02 0.02 0.02 
0.03 0.03 0.03 0.03 0.03 0.03 0.03 0.03 0.03 0.03 0.03 0.03 0.03 0.03 0.03 0.03 
0.04 0.04 0.04 0.04 0.04 0.04 0.04 0.04 0.04 0.04 0.04 0.04 0.04 0.04 0.04 0.04 
0.05 0.05 0.05 0.05 0.05 0.05 0.05 0.05 0.05 0.05 0.05 0.05 0.05 0.05 0.05 0.05 
0.06 0.06 0.06 0.06 0.06 0.06 0.06 0.06 0.06 0.06 0.06 0.06 0.06 0.06 0.06 0.06 
0.07 0.07 0.07 0.07 0.07 0.07 0.07 0.07 0.07 0.07 0.07 0.07 0.07 0.07 0.07 0.07 
0.2 0.2 0.2 0.2 0.2 0.2 0.2 0.2 0.2 0.2 0.2 0.2 0.2 0.2 0.2 0.2 
0.4 0.4 0.4 0.4 0.4 0.4 0.4 0.4 0.4 0.4 0.4 0.4 0.4 0.4 0.4 0.4 
0.6 0.6 0.6 0.6 0.6 0.6 0.6 0.6 0.6 0.6 0.6 0.6 0.6 0.6 0.6 0.6 
0.8 0.8 0.8 0.8 0.8 0.8 0.8 0.8 0.8 0.8 0.8 0.8 0.8 0.8 0.8 0.8 
1 1 1 1 1 1 1 1 1 1 1 1 1 1 1 1 
